33D32945 STP File, STP Format Version 1.0

SECTION Comment
Name "i640-104-PCST"
Creator "Indaco Biazzo" 
Remark "derived from Incidence graph by Cees Duin"
END

SECTION Graph
Nodes 640
Edges 960
E 1 148 201.000000
E 1 401 198.000000
E 1 497 199.000000
E 1 525 195.000000
E 1 604 205.000000
E 1 629 199.000000
E 2 187 201.000000
E 2 294 201.000000
E 2 320 199.000000
E 2 410 195.000000
E 3 118 195.000000
E 3 251 201.000000
E 3 565 198.000000
E 4 604 194.000000
E 5 39 195.000000
E 5 70 198.000000
E 5 103 193.000000
E 6 69 188.000000
E 6 96 197.000000
E 6 265 204.000000
E 6 271 205.000000
E 6 394 202.000000
E 6 434 197.000000
E 6 546 203.000000
E 7 488 198.000000
E 7 547 203.000000
E 7 596 197.000000
E 7 600 203.000000
E 8 495 193.000000
E 9 103 199.000000
E 9 145 200.000000
E 9 505 207.000000
E 10 104 204.000000
E 10 233 200.000000
E 10 451 203.000000
E 10 470 194.000000
E 10 615 208.000000
E 11 43 199.000000
E 11 605 198.000000
E 12 351 195.000000
E 13 42 198.000000
E 13 512 204.000000
E 13 528 200.000000
E 13 628 197.000000
E 14 239 204.000000
E 14 536 200.000000
E 15 249 201.000000
E 15 372 195.000000
E 16 184 197.000000
E 17 314 202.000000
E 17 365 188.000000
E 18 148 193.000000
E 18 158 188.000000
E 18 220 204.000000
E 18 498 195.000000
E 19 155 206.000000
E 19 274 197.000000
E 19 309 208.000000
E 20 245 198.000000
E 20 365 198.000000
E 21 355 200.000000
E 22 130 205.000000
E 22 209 210.000000
E 22 570 195.000000
E 23 129 201.000000
E 23 267 206.000000
E 23 280 199.000000
E 24 48 208.000000
E 24 142 206.000000
E 24 621 196.000000
E 25 430 196.000000
E 26 161 101.000000
E 26 206 97.000000
E 26 399 98.000000
E 26 428 104.000000
E 26 491 99.000000
E 26 559 94.000000
E 27 270 98.000000
E 27 596 110.000000
E 28 41 100.000000
E 28 291 99.000000
E 28 382 97.000000
E 29 327 90.000000
E 29 339 98.000000
E 29 409 99.000000
E 29 428 105.000000
E 30 193 99.000000
E 31 35 99.000000
E 31 114 95.000000
E 32 538 101.000000
E 32 638 104.000000
E 33 148 101.000000
E 33 176 98.000000
E 33 253 106.000000
E 33 306 98.000000
E 34 114 91.000000
E 34 247 109.000000
E 34 435 110.000000
E 35 378 99.000000
E 36 201 111.000000
E 37 123 92.000000
E 37 296 102.000000
E 38 595 100.000000
E 39 80 99.000000
E 39 219 99.000000
E 39 574 91.000000
E 40 107 106.000000
E 40 294 108.000000
E 41 52 96.000000
E 41 115 99.000000
E 41 207 101.000000
E 42 287 98.000000
E 42 347 102.000000
E 42 360 100.000000
E 42 582 95.000000
E 43 76 103.000000
E 43 212 99.000000
E 44 289 94.000000
E 44 356 101.000000
E 44 401 109.000000
E 44 519 99.000000
E 45 110 97.000000
E 45 383 92.000000
E 45 639 97.000000
E 46 99 93.000000
E 46 421 107.000000
E 47 349 104.000000
E 48 74 96.000000
E 48 276 96.000000
E 48 535 97.000000
E 48 572 104.000000
E 49 633 108.000000
E 50 177 99.000000
E 50 264 101.000000
E 51 116 108.000000
E 51 308 97.000000
E 51 365 101.000000
E 51 575 103.000000
E 51 614 98.000000
E 52 472 102.000000
E 53 628 104.000000
E 54 188 93.000000
E 54 249 100.000000
E 54 353 93.000000
E 54 386 96.000000
E 54 497 89.000000
E 55 520 105.000000
E 55 625 104.000000
E 56 114 99.000000
E 56 180 95.000000
E 56 338 96.000000
E 56 377 106.000000
E 56 558 103.000000
E 56 565 99.000000
E 56 568 96.000000
E 56 633 100.000000
E 57 247 108.000000
E 57 263 90.000000
E 57 410 101.000000
E 58 186 97.000000
E 58 522 96.000000
E 59 123 99.000000
E 59 234 102.000000
E 59 486 104.000000
E 60 85 101.000000
E 60 268 90.000000
E 60 308 92.000000
E 61 338 100.000000
E 62 461 103.000000
E 62 536 108.000000
E 63 79 101.000000
E 63 100 107.000000
E 64 124 103.000000
E 64 335 109.000000
E 65 393 97.000000
E 65 494 96.000000
E 65 508 98.000000
E 65 632 89.000000
E 66 95 105.000000
E 66 375 101.000000
E 66 387 97.000000
E 67 73 102.000000
E 67 77 95.000000
E 67 104 96.000000
E 67 275 93.000000
E 68 219 104.000000
E 68 224 90.000000
E 68 274 101.000000
E 68 360 100.000000
E 68 373 103.000000
E 68 443 102.000000
E 68 562 97.000000
E 69 246 99.000000
E 69 263 100.000000
E 69 531 97.000000
E 70 108 107.000000
E 70 633 93.000000
E 71 271 112.000000
E 71 296 102.000000
E 71 342 96.000000
E 72 373 104.000000
E 72 504 101.000000
E 73 445 103.000000
E 73 624 100.000000
E 74 95 103.000000
E 74 224 98.000000
E 74 282 103.000000
E 74 334 104.000000
E 75 363 98.000000
E 75 504 98.000000
E 75 607 88.000000
E 76 410 101.000000
E 77 260 102.000000
E 77 397 105.000000
E 77 425 102.000000
E 78 180 95.000000
E 78 613 101.000000
E 79 502 102.000000
E 79 568 104.000000
E 79 578 96.000000
E 80 157 95.000000
E 80 362 96.000000
E 81 335 101.000000
E 81 624 108.000000
E 82 319 105.000000
E 83 314 92.000000
E 83 531 95.000000
E 84 221 94.000000
E 84 241 106.000000
E 85 147 104.000000
E 85 414 102.000000
E 86 403 103.000000
E 86 464 92.000000
E 87 215 99.000000
E 87 502 105.000000
E 87 583 92.000000
E 88 178 101.000000
E 88 395 93.000000
E 89 160 96.000000
E 89 190 91.000000
E 89 389 87.000000
E 89 417 90.000000
E 89 446 95.000000
E 90 440 106.000000
E 90 460 98.000000
E 91 106 107.000000
E 91 108 105.000000
E 91 451 100.000000
E 91 588 109.000000
E 92 320 98.000000
E 92 476 102.000000
E 92 636 103.000000
E 93 218 104.000000
E 93 564 96.000000
E 94 224 110.000000
E 95 144 102.000000
E 95 217 99.000000
E 95 236 97.000000
E 95 262 93.000000
E 95 380 102.000000
E 95 398 91.000000
E 96 252 103.000000
E 96 625 105.000000
E 97 250 101.000000
E 97 288 106.000000
E 98 474 102.000000
E 98 623 91.000000
E 99 428 101.000000
E 99 432 95.000000
E 100 169 97.000000
E 100 203 101.000000
E 100 340 97.000000
E 100 587 90.000000
E 101 403 105.000000
E 101 497 94.000000
E 102 551 99.000000
E 103 125 106.000000
E 104 119 93.000000
E 104 286 101.000000
E 105 231 106.000000
E 105 288 102.000000
E 105 397 101.000000
E 105 467 96.000000
E 105 578 108.000000
E 106 392 99.000000
E 106 409 98.000000
E 106 475 102.000000
E 106 482 102.000000
E 106 593 92.000000
E 107 143 96.000000
E 107 337 106.000000
E 107 354 106.000000
E 107 366 104.000000
E 107 558 102.000000
E 109 120 99.000000
E 109 149 101.000000
E 109 590 100.000000
E 110 243 102.000000
E 110 288 105.000000
E 110 372 98.000000
E 110 471 101.000000
E 110 498 97.000000
E 111 331 97.000000
E 111 387 102.000000
E 111 620 93.000000
E 112 444 97.000000
E 113 276 110.000000
E 115 276 94.000000
E 115 356 97.000000
E 115 370 101.000000
E 115 412 96.000000
E 115 420 102.000000
E 115 530 101.000000
E 115 565 96.000000
E 116 202 103.000000
E 116 305 95.000000
E 116 462 99.000000
E 116 580 98.000000
E 117 199 105.000000
E 119 586 100.000000
E 120 167 98.000000
E 120 334 98.000000
E 121 355 112.000000
E 122 186 105.000000
E 122 197 90.000000
E 122 602 99.000000
E 123 298 94.000000
E 124 136 100.000000
E 124 416 101.000000
E 125 148 94.000000
E 125 260 89.000000
E 125 339 102.000000
E 126 134 94.000000
E 126 151 111.000000
E 126 268 104.000000
E 127 135 97.000000
E 127 354 103.000000
E 127 408 98.000000
E 127 451 97.000000
E 127 524 107.000000
E 128 218 100.000000
E 129 144 98.000000
E 129 244 94.000000
E 129 307 93.000000
E 129 358 103.000000
E 129 632 99.000000
E 131 186 96.000000
E 131 569 117.000000
E 131 634 103.000000
E 132 472 106.000000
E 133 298 96.000000
E 133 325 99.000000
E 133 376 105.000000
E 133 597 101.000000
E 134 243 96.000000
E 134 338 101.000000
E 134 495 102.000000
E 135 155 99.000000
E 135 280 95.000000
E 135 287 94.000000
E 135 301 102.000000
E 135 383 111.000000
E 135 616 92.000000
E 136 147 97.000000
E 137 548 101.000000
E 138 142 94.000000
E 138 224 109.000000
E 138 363 100.000000
E 138 380 103.000000
E 139 425 108.000000
E 139 457 94.000000
E 140 289 99.000000
E 140 620 96.000000
E 141 233 97.000000
E 141 633 102.000000
E 142 261 103.000000
E 142 415 108.000000
E 143 396 107.000000
E 143 606 103.000000
E 143 612 103.000000
E 145 409 107.000000
E 146 411 92.000000
E 146 416 111.000000
E 147 209 108.000000
E 147 314 93.000000
E 147 588 104.000000
E 148 272 99.000000
E 148 319 96.000000
E 148 385 107.000000
E 148 581 99.000000
E 149 408 104.000000
E 149 454 93.000000
E 149 520 100.000000
E 150 545 98.000000
E 150 576 104.000000
E 151 595 94.000000
E 152 311 90.000000
E 153 154 93.000000
E 153 204 95.000000
E 153 291 99.000000
E 153 399 102.000000
E 154 320 101.000000
E 154 464 98.000000
E 154 558 102.000000
E 155 211 108.000000
E 155 259 99.000000
E 155 263 96.000000
E 155 389 109.000000
E 156 219 102.000000
E 156 343 93.000000
E 156 541 92.000000
E 157 182 103.000000
E 157 491 110.000000
E 158 389 98.000000
E 159 242 104.000000
E 159 461 106.000000
E 159 576 95.000000
E 160 552 108.000000
E 161 450 102.000000
E 161 458 108.000000
E 162 446 104.000000
E 162 605 108.000000
E 163 508 95.000000
E 163 598 88.000000
E 164 165 98.000000
E 164 192 102.000000
E 164 584 98.000000
E 165 367 98.000000
E 166 419 92.000000
E 166 426 101.000000
E 166 605 96.000000
E 167 239 97.000000
E 167 505 99.000000
E 167 562 102.000000
E 168 281 93.000000
E 168 420 97.000000
E 168 561 94.000000
E 169 371 104.000000
E 169 583 102.000000
E 169 627 103.000000
E 170 238 99.000000
E 171 176 100.000000
E 172 178 103.000000
E 172 294 100.000000
E 172 463 97.000000
E 172 604 96.000000
E 173 235 101.000000
E 173 560 103.000000
E 174 309 100.000000
E 174 398 100.000000
E 174 592 106.000000
E 174 604 94.000000
E 175 262 94.000000
E 175 574 96.000000
E 175 602 106.000000
E 176 233 101.000000
E 176 577 103.000000
E 176 611 100.000000
E 178 198 101.000000
E 178 199 97.000000
E 178 218 98.000000
E 178 237 99.000000
E 178 286 91.000000
E 178 336 103.000000
E 178 346 99.000000
E 179 293 89.000000
E 180 190 100.000000
E 180 282 103.000000
E 180 369 94.000000
E 180 471 100.000000
E 181 531 97.000000
E 182 265 102.000000
E 182 497 98.000000
E 182 539 101.000000
E 183 349 97.000000
E 184 505 106.000000
E 185 370 101.000000
E 185 449 114.000000
E 186 269 103.000000
E 186 284 101.000000
E 186 312 96.000000
E 186 440 107.000000
E 186 582 96.000000
E 187 396 92.000000
E 189 205 95.000000
E 189 411 95.000000
E 190 622 90.000000
E 191 263 103.000000
E 191 491 98.000000
E 191 551 96.000000
E 191 570 104.000000
E 192 419 108.000000
E 192 630 101.000000
E 193 444 105.000000
E 194 337 95.000000
E 195 492 97.000000
E 195 549 92.000000
E 196 224 106.000000
E 196 238 104.000000
E 197 350 102.000000
E 197 357 104.000000
E 197 459 101.000000
E 197 474 97.000000
E 197 564 103.000000
E 197 610 99.000000
E 197 627 108.000000
E 198 233 106.000000
E 198 546 89.000000
E 199 593 93.000000
E 200 474 105.000000
E 201 216 97.000000
E 201 552 102.000000
E 201 625 95.000000
E 202 321 97.000000
E 202 501 100.000000
E 203 555 100.000000
E 204 319 98.000000
E 205 219 101.000000
E 206 497 102.000000
E 208 411 92.000000
E 209 322 102.000000
E 209 355 103.000000
E 209 388 97.000000
E 209 632 103.000000
E 210 502 96.000000
E 210 610 93.000000
E 211 455 109.000000
E 211 458 101.000000
E 212 287 107.000000
E 212 314 88.000000
E 212 620 101.000000
E 213 359 97.000000
E 213 398 99.000000
E 214 435 101.000000
E 215 233 108.000000
E 215 516 101.000000
E 215 529 96.000000
E 217 229 103.000000
E 218 253 102.000000
E 219 290 107.000000
E 219 496 101.000000
E 220 276 99.000000
E 220 376 102.000000
E 220 579 104.000000
E 221 532 104.000000
E 222 330 95.000000
E 222 475 99.000000
E 223 535 96.000000
E 223 567 105.000000
E 223 575 97.000000
E 224 278 101.000000
E 224 284 103.000000
E 224 315 99.000000
E 224 583 102.000000
E 225 318 100.000000
E 225 437 90.000000
E 226 378 91.000000
E 227 403 94.000000
E 227 601 104.000000
E 228 233 103.000000
E 229 445 92.000000
E 229 619 102.000000
E 230 319 105.000000
E 231 622 92.000000
E 232 441 109.000000
E 232 640 94.000000
E 233 377 103.000000
E 233 389 102.000000
E 234 386 100.000000
E 235 314 99.000000
E 235 398 107.000000
E 235 500 95.000000
E 236 503 110.000000
E 237 355 107.000000
E 237 451 96.000000
E 237 613 108.000000
E 238 324 109.000000
E 238 364 96.000000
E 239 344 98.000000
E 239 353 101.000000
E 239 574 97.000000
E 240 491 97.000000
E 240 497 96.000000
E 240 528 94.000000
E 241 474 103.000000
E 243 410 105.000000
E 243 556 103.000000
E 244 469 105.000000
E 244 554 108.000000
E 246 358 100.000000
E 246 442 100.000000
E 246 610 103.000000
E 247 412 101.000000
E 247 618 105.000000
E 248 285 102.000000
E 251 372 85.000000
E 251 503 100.000000
E 252 455 98.000000
E 252 509 107.000000
E 253 594 103.000000
E 254 539 103.000000
E 254 550 105.000000
E 254 615 97.000000
E 255 407 103.000000
E 255 637 106.000000
E 255 638 96.000000
E 256 426 96.000000
E 256 438 92.000000
E 257 304 100.000000
E 257 563 97.000000
E 258 528 102.000000
E 258 558 101.000000
E 259 267 109.000000
E 259 352 93.000000
E 259 402 102.000000
E 259 431 112.000000
E 261 469 99.000000
E 261 583 95.000000
E 262 334 102.000000
E 262 402 96.000000
E 263 273 89.000000
E 263 279 95.000000
E 263 590 94.000000
E 263 613 107.000000
E 264 311 102.000000
E 264 384 96.000000
E 264 442 96.000000
E 264 460 89.000000
E 264 638 101.000000
E 266 307 98.000000
E 267 581 96.000000
E 268 373 99.000000
E 269 280 104.000000
E 270 391 103.000000
E 272 551 93.000000
E 273 331 97.000000
E 274 375 103.000000
E 274 470 90.000000
E 274 514 110.000000
E 275 480 99.000000
E 275 515 99.000000
E 275 605 91.000000
E 276 508 105.000000
E 276 588 100.000000
E 277 341 100.000000
E 277 439 95.000000
E 277 511 102.000000
E 278 617 103.000000
E 279 369 98.000000
E 279 558 105.000000
E 280 466 100.000000
E 281 366 102.000000
E 282 324 98.000000
E 283 500 97.000000
E 284 330 91.000000
E 284 336 105.000000
E 284 407 98.000000
E 284 448 100.000000
E 284 486 101.000000
E 284 515 101.000000
E 284 604 109.000000
E 285 459 103.000000
E 285 598 100.000000
E 287 612 100.000000
E 289 619 100.000000
E 290 332 103.000000
E 291 470 96.000000
E 292 459 106.000000
E 292 624 101.000000
E 293 338 88.000000
E 294 631 105.000000
E 295 394 93.000000
E 295 573 97.000000
E 296 349 104.000000
E 296 589 95.000000
E 297 344 102.000000
E 297 402 97.000000
E 298 457 99.000000
E 299 337 93.000000
E 299 378 99.000000
E 300 360 98.000000
E 300 534 107.000000
E 301 610 90.000000
E 302 426 103.000000
E 302 478 94.000000
E 303 358 96.000000
E 304 416 101.000000
E 304 482 96.000000
E 305 411 97.000000
E 305 429 104.000000
E 305 473 102.000000
E 306 497 95.000000
E 307 499 101.000000
E 307 630 97.000000
E 308 325 93.000000
E 308 503 113.000000
E 310 407 109.000000
E 310 508 102.000000
E 311 333 99.000000
E 311 429 95.000000
E 312 315 97.000000
E 312 384 98.000000
E 313 405 99.000000
E 313 503 97.000000
E 313 620 111.000000
E 314 442 99.000000
E 315 564 95.000000
E 316 406 99.000000
E 316 421 100.000000
E 316 478 99.000000
E 316 609 92.000000
E 317 448 105.000000
E 321 347 106.000000
E 322 640 107.000000
E 323 360 99.000000
E 323 416 98.000000
E 324 479 102.000000
E 325 407 101.000000
E 325 625 102.000000
E 326 440 97.000000
E 326 471 100.000000
E 326 479 96.000000
E 327 352 104.000000
E 327 442 103.000000
E 328 448 114.000000
E 328 557 98.000000
E 329 350 100.000000
E 329 470 97.000000
E 330 435 92.000000
E 330 444 101.000000
E 330 447 96.000000
E 330 461 100.000000
E 330 517 103.000000
E 330 545 106.000000
E 330 632 94.000000
E 335 349 101.000000
E 336 482 87.000000
E 336 576 110.000000
E 336 628 105.000000
E 339 614 102.000000
E 340 599 100.000000
E 342 563 92.000000
E 343 458 106.000000
E 343 476 102.000000
E 344 506 92.000000
E 345 346 94.000000
E 345 387 90.000000
E 345 465 96.000000
E 345 527 106.000000
E 348 398 107.000000
E 348 415 96.000000
E 349 467 98.000000
E 351 566 94.000000
E 351 617 106.000000
E 352 389 93.000000
E 352 439 95.000000
E 352 528 106.000000
E 354 433 108.000000
E 354 626 105.000000
E 357 379 95.000000
E 358 632 97.000000
E 359 546 96.000000
E 360 420 102.000000
E 360 452 99.000000
E 360 484 96.000000
E 360 636 102.000000
E 361 434 106.000000
E 363 495 99.000000
E 364 389 107.000000
E 364 488 102.000000
E 365 442 106.000000
E 365 549 99.000000
E 367 505 107.000000
E 368 431 98.000000
E 369 371 112.000000
E 369 434 99.000000
E 370 602 103.000000
E 370 638 108.000000
E 372 381 94.000000
E 372 452 101.000000
E 373 409 105.000000
E 373 574 95.000000
E 373 610 99.000000
E 374 538 96.000000
E 375 460 97.000000
E 375 630 96.000000
E 379 440 98.000000
E 380 532 107.000000
E 383 456 102.000000
E 384 594 106.000000
E 384 609 98.000000
E 389 457 106.000000
E 389 531 100.000000
E 389 553 95.000000
E 389 562 102.000000
E 390 417 102.000000
E 391 415 94.000000
E 391 565 99.000000
E 391 615 97.000000
E 392 482 115.000000
E 392 514 103.000000
E 393 556 92.000000
E 394 464 95.000000
E 394 602 101.000000
E 395 405 108.000000
E 395 534 108.000000
E 395 564 102.000000
E 396 406 112.000000
E 396 432 104.000000
E 396 461 94.000000
E 396 553 107.000000
E 396 578 92.000000
E 398 476 102.000000
E 398 558 87.000000
E 399 464 99.000000
E 400 502 106.000000
E 400 635 93.000000
E 402 517 105.000000
E 402 579 100.000000
E 403 603 100.000000
E 403 632 100.000000
E 404 626 105.000000
E 405 518 103.000000
E 407 565 105.000000
E 407 625 100.000000
E 410 562 98.000000
E 413 445 100.000000
E 414 478 97.000000
E 416 474 97.000000
E 416 489 102.000000
E 418 457 96.000000
E 418 599 99.000000
E 419 563 104.000000
E 420 529 93.000000
E 421 530 103.000000
E 422 496 92.000000
E 422 537 91.000000
E 423 438 91.000000
E 423 439 100.000000
E 423 465 93.000000
E 424 450 95.000000
E 424 521 107.000000
E 425 573 107.000000
E 426 503 99.000000
E 426 507 98.000000
E 426 544 98.000000
E 427 443 93.000000
E 427 513 93.000000
E 427 559 89.000000
E 428 521 105.000000
E 428 535 102.000000
E 429 486 96.000000
E 429 487 91.000000
E 430 433 99.000000
E 430 575 102.000000
E 432 544 90.000000
E 433 487 102.000000
E 435 575 92.000000
E 435 598 91.000000
E 436 454 100.000000
E 437 565 97.000000
E 437 586 93.000000
E 440 498 106.000000
E 441 563 91.000000
E 441 583 96.000000
E 442 461 103.000000
E 443 575 99.000000
E 443 595 102.000000
E 444 618 98.000000
E 445 604 101.000000
E 445 607 96.000000
E 448 474 87.000000
E 449 514 101.000000
E 449 594 104.000000
E 450 472 110.000000
E 450 531 102.000000
E 450 583 103.000000
E 451 473 100.000000
E 452 477 105.000000
E 452 555 101.000000
E 453 492 102.000000
E 454 544 104.000000
E 455 590 96.000000
E 456 553 104.000000
E 458 497 97.000000
E 458 504 92.000000
E 461 542 98.000000
E 466 500 104.000000
E 467 535 97.000000
E 467 565 99.000000
E 467 571 100.000000
E 468 551 103.000000
E 470 489 100.000000
E 471 490 99.000000
E 471 492 111.000000
E 472 493 105.000000
E 475 532 96.000000
E 476 609 105.000000
E 477 591 108.000000
E 478 486 92.000000
E 478 492 105.000000
E 480 531 94.000000
E 481 574 95.000000
E 483 581 98.000000
E 485 512 103.000000
E 485 576 98.000000
E 486 602 102.000000
E 488 509 113.000000
E 488 616 106.000000
E 493 503 102.000000
E 493 520 107.000000
E 494 589 99.000000
E 496 498 103.000000
E 499 510 102.000000
E 501 621 98.000000
E 502 533 97.000000
E 502 560 99.000000
E 503 543 108.000000
E 504 582 100.000000
E 506 599 94.000000
E 508 579 97.000000
E 510 532 93.000000
E 514 593 106.000000
E 516 526 99.000000
E 516 549 91.000000
E 523 629 99.000000
E 526 603 94.000000
E 527 529 99.000000
E 528 604 107.000000
E 529 556 97.000000
E 531 604 99.000000
E 535 608 105.000000
E 535 637 103.000000
E 537 616 104.000000
E 538 576 104.000000
E 538 609 91.000000
E 540 553 98.000000
E 541 558 107.000000
E 541 596 96.000000
E 543 639 101.000000
E 544 562 95.000000
E 544 603 100.000000
E 548 615 99.000000
E 551 592 101.000000
E 557 625 102.000000
E 563 634 95.000000
E 566 574 101.000000
E 569 610 98.000000
E 570 599 99.000000
E 571 591 100.000000
E 573 617 97.000000
E 574 630 104.000000
E 577 585 95.000000
E 582 624 96.000000
E 583 605 108.000000
E 589 609 95.000000
E 591 602 100.000000
E 600 612 95.000000
E 601 605 104.000000
E 603 631 106.000000
END

SECTION Terminals
Terminals 25
TP 1 240.000000
TP 2 368.000000
TP 3 792.000000
TP 4 564.000000
TP 5 36.000000
TP 6 196.000000
TP 7 776.000000
TP 8 500.000000
TP 9 60.000000
TP 10 528.000000
TP 11 744.000000
TP 12 40.000000
TP 13 92.000000
TP 14 392.000000
TP 15 368.000000
TP 16 148.000000
TP 17 792.000000
TP 18 472.000000
TP 19 312.000000
TP 20 428.000000
TP 21 560.000000
TP 22 600.000000
TP 23 776.000000
TP 24 28.000000
TP 25 236.000000
END

EOF
